/*---------------------------------------------------------------------------------------------------------------------------------------
Course: Modelling and optimisation of energy systems course spring semester 2019
EPFL Campus energ system optimization
IPESE, EPFL
---------------------------------------------------------------------------------------------------------------------------------------*/

/*---------------------------------------------------------------------------------------------------------------------------------------
This is a data file which will contains the informations on sets and parameters. Depending on the modifications and additions to the 
model, the data file is subject to change.
---------------------------------------------------------------------------------------------------------------------------------------*/

/*---------------------------------------------------------------------------------------------------------------------------------------
Sets
---------------------------------------------------------------------------------------------------------------------------------------*/
set Time := 															# set of typical periods
1
2
3
4
5
6
7
;

set Technologies := 													# set of technologies
Boiler 
PV 
#SOFC 
#STC
#HP2
;			

set Grids :=															# set of grid units
ElecGridBuy 
ElecGridSell 
NatGasGrid
#HydrogenGrid
;	

set Layers :=															# set of layers (resources)
Natgas
Electricity
#Hydrogen
;	

set HeatingLevel :=														# set of heating levels
LowT 
MediumT
;										

set UtilityType :=														# set of utility type
Heating 
ElectricitySup
ElectricityCons
;

set UtilitiesOfType[Heating] :=											# set to assign utilities to utility type
Boiler
#SOFC
#STC
#HP2
;

set UtilitiesOfType[ElectricitySup] :=
#SOFC
PV
ElecGridBuy
;

set UtilitiesOfType[ElectricityCons] :=
#HP2
ElecGridSell
;

set UtilitiesOfLayer[Electricity] := 
#SOFC 
PV 
#HP2
ElecGridBuy 
ElecGridSell 
;

set UtilitiesOfLayer[Natgas] :=
Boiler 
NatGasGrid 
;

#set UtilitiesOfLayer[Hydrogen] :=
#SOFC
#HydrogenGrid
#;

/*---------------------------------------------------------------------------------------------------------------------------------------
Generic Parameters
---------------------------------------------------------------------------------------------------------------------------------------*/
param top :=															# operating time of each typical period
1    640
2    164
3    515
4    444
5    312
6    340
7    1
;

param Theating :=														# temperature of heating demand
MediumT 65
LowT 50
;

param irradiation :=													# irradiation at each typical period
1    0.28557
2    0.03245
3    0.03776
4    0.03761
5    0.56462
6    0.27901
7    0.00000
;


/*---------------------------------------------------------------------------------------------------------------------------------------
Heating demand parameters
---------------------------------------------------------------------------------------------------------------------------------------*/
param Text := 															# external temperature [C] at each typical period
1    13.05
2    6.3
3    -0.22
4    12.28
5    12.38
6    6.04
7    -9.2
;

/*---------------------------------------------------------------------------------------------------------------------------------------
Utility parameters
---------------------------------------------------------------------------------------------------------------------------------------*/
param c_spec :=															# specific cost of resources[CHF/kWh)]
NatGasGrid 0.0303
ElecGridBuy 0.0916
ElecGridSell -0.06
#HydrogenGrid 0.3731

# assumption: SOFC produce electricity and heat from hydrogen but not the reverse
#https://h2v.eu/analysis/statistics/financing/hydrogen-cost-and-sales-prices
#https://blog.romande-energie.ch/fr/articles/152-hydrogene-transition-energetique
;

/*---------------------------------------------------------------------------------------------------------------------------------------
Set the grid parameters: resource flow and fmax
---------------------------------------------------------------------------------------------------------------------------------------*/
let  Flowout['Natgas','NatGasGrid'] := refSize;							# Initialization of Grids
let  Fmax['NatGasGrid'] := 1000;
let  Flowout['Electricity','ElecGridBuy'] := refSize;
let  Fmax['ElecGridBuy'] := 1000;
let  Flowin['Electricity','ElecGridSell'] := refSize;
let  Fmax['ElecGridSell'] := 1000;
#let  Flowin['Hydrogen','HydrogenGrid'] := refSize;
#let  Fmax['HydrogenGrid'] := 1000;
